max:+ x0 + x1 + x2 + x3 + x4 + x5 + x6 + x7 + x8 ;

 /* sigma variables*/
x0 = 8;
x1 = x0 + + 0.3 x5+ 0.3 x7+ 30.000000000000004;
x2 = x1 + + 0.3 x3+ 0.3 x8+ 30.000000000000004;
x3 = 8;
x4 = x3 + + 0.24 x1+ 0.24 x8+ 24.000000000000004;
x5 = x4 + + 0.24 x2+ 0.24 x6+ 24.000000000000004;
x6 = 8;
x7 = x6 + + 0.24 x2+ 0.24 x4+ 24.000000000000004;
x8 = x7 + + 0.24 x0+ 0.24 x5+ 24.000000000000004;
